Traveling Salesman Problem/TSP_generados/Aleatorio1621103715_17.tsp
NAME: Aleatorio1621103715_17.tsp
COMMENT: Randomly generated scenario
TYPE: TSP
DIMENSION: 17
EDGE_WEIGHT_TYPE: ATT
NODE_COORD_SECTION
1 27.62 41.74
2 27.84 24.56
3 8.82 31.66
4 3.17 26.23
5 5.02 0.34
6 2.43 32.08
7 17.82 35.57
8 49.8 26.62
9 46.32 32.96
10 34.95 42.66
11 12.58 12.11
12 31.96 27.77
13 0.08 35.83
14 20.18 22.64
15 14.11 3.32
16 32.78 11.94
17 3.81 8.08
