Traveling Salesman Problem/TSP_generados/Aleatorio1621103715_17.opt.tour
NAME: Aleatorio1621103715_17.opt.tour
COMMENT: Optimal solution for Aleatorio1621103715_17 (179.88137220283082)
TYPE: TOUR
DIMENSION: 17
TOUR_SECTION
1 10 9 8 16 12 2 14 11 15 5 17 4 6 13 3 7
-1
EOF
